[1, 3, 2, 2, 7, 6, 8, 5, 2, 10, 11, 19, 15, 17, 16, 12, 23, 18, 19, 24, 23, 28, 27, 23, 24, 26, 27, 27, 28, 28, 31, 31, 30, 38, 36, 35, 37, 39, 39, 40, 41, 41, 42, 44, 45, 45, 46, 53, 52, 48, 50, 51, 49, 51, 45, 56, 58, 57, 59, 62, 61, 65, 60, 64, 63, 63, 64, 69, 69, 73, 75, 78, 77, 76, 77, 76, 75, 71, 80, 80, 95, 88, 84, 85, 86, 87, 84, 88, 95, 96, 89, 91, 90, 92, 93, 94, 97, 99, 102, 103, 103, 101, 104, 102, 100, 108, 111, 112, 113, 107, 110, 109, 108, 84, 115, 116, 118, 119, 121, 119, 120, 119, 126, 125, 123, 124, 129, 129, 130, 131, 132, 128, 133, 134, 133, 134, 135, 138, 138, 141, 142, 139, 141, 146, 145, 142, 147, 186, 148, 161, 162, 158, 157, 161, 153, 156, 157, 159, 160, 161, 163, 158, 162, 163, 162, 166, 167, 171, 169, 171, 173, 172, 171, 170, 175, 177, 181, 178, 182, 182, 180, 181, 184, 182, 183, 186, 188, 185, 185, 190, 195, 196, 194, 191, 192, 197, 198, 193, 199, 200, 201, 203, 207, 209, 213, 216, 211, 213, 212, 210, 211, 208, 209, 207, 210, 209, 219, 222, 220, 221, 218, 217, 223, 225, 225, 226, 228, 228, 229, 230, 231, 232, 233, 234, 235, 232, 239, 244, 241, 242, 241, 242, 249, 247, 246, 245, 250, 248, 249, 249, 249, 249, 257, 256, 256, 257, 257, 258, 259, 259, 260, 261, 272, 262, 266, 265, 267, 268, 270, 271, 273, 263, 264, 274, 264, 266, 259, 272, 267, 13]
[2, 4, 14, 15, 16, 17, 23, 23, 26, 26, 26, 29, 34, 38, 38, 40, 40, 45, 50, 50, 51, 52, 55, 57, 58, 59, 61, 64, 70, 77, 85, 88, 93, 96, 98, 99, 103, 110, 111, 112, 114, 115, 127, 128, 128, 129, 130, 131, 132, 132, 134, 144, 145, 146, 152, 155, 156, 156, 158, 165, 168, 169, 171, 172, 174, 176, 179, 182, 187, 189, 190, 192, 194, 197, 198, 199, 200, 206, 206, 208, 208, 208, 209, 209, 210, 210, 211, 212, 212, 215, 216, 217, 218, 219, 222, 225, 230, 231, 231, 233, 240, 240, 241, 241, 246, 247, 248, 248, 248, 248, 248, 256, 256, 256, 260, 263, 263, 267, 271, 271, 272, 289, 291, 295, 297, 297, 302, 302, 304, 308, 315, 316, 320, 324, 327, 328, 335, 337, 339, 341, 341, 342, 342, 343, 347, 347, 349, 351, 362, 362, 362, 363, 364, 365, 367, 368, 370, 371, 372, 386, 386, 387, 388, 390, 391, 393, 396, 398, 401, 404, 409, 410, 411, 411, 412, 412, 416, 416, 417, 419, 419, 420, 420, 424, 425, 426, 431, 437, 438, 439, 439, 439, 448, 450, 455, 456, 458, 459, 459, 461, 462, 464, 464, 470, 471, 473, 475, 476, 478, 481, 485, 485, 486, 490, 496, 498, 500, 501, 508, 509, 519, 519, 522, 525, 526, 527, 527, 527, 527, 527, 528, 534, 534, 539, 560, 565, 567, 573, 575, 576, 576, 581, 581, 588, 588, 594, 597, 598, 598, 603, 605, 609, 610, 616, 617, 618, 619, 621, 621, 626, 626, 633, 633, 642, 647, 648, 649, 654, 658, 661, 664, 667, 669, 673, 675, 676, 676, 676, 678, 681, 682, 688, 689, 692, 695, 695, 696, 698, 698, 704, 705, 710, 718, 718, 718, 724, 726, 727, 728, 728, 728, 734, 735, 737, 738, 738, 741, 743, 743, 748, 749, 750, 753, 754, 756, 765, 767, 767, 770, 770, 775, 785, 785, 787, 789, 789, 790, 796, 799, 799, 803, 804, 807, 816, 816, 816, 817, 824, 824, 828, 838, 838, 838, 839, 842, 846, 847, 848, 849, 859, 859, 859, 862, 863, 863, 863, 864, 864, 864, 866, 872, 874, 876, 880, 884, 886, 888, 892, 893, 895, 905, 905, 909, 913, 913, 921, 922, 923, 927, 930, 933, 939, 939, 940, 943, 945, 947, 948, 951, 952, 957, 962, 964, 966, 970, 970, 975, 978, 978, 982, 984, 995, 996, 1002, 1008, 1009, 1011, 1013, 1016, 1017, 1017, 1020, 1024, 1028, 1039, 1047, 1047, 1048, 1053, 1055, 1056, 1058, 1059, 1061, 1061, 1064, 1064, 1067, 1068, 1068, 1069, 1071, 1080, 1081, 1084, 1093, 1093, 1093, 1095, 1095, 1095, 1096, 1098, 1101, 1106, 1107, 1118, 1120, 1121, 1123, 1127, 1130, 1141, 1143, 1143, 1143, 1146, 1146, 1153, 1155, 1156, 1156, 1157, 1159, 1164, 1165, 1168, 1171, 1173, 1174, 1177, 1178, 1178, 1179, 1179, 1190, 1190, 1191, 1191, 1192, 1192, 1193, 1201, 1202, 1203, 1203, 1204, 1205, 1206, 1209, 1210, 1210, 1211, 1218, 1218, 1219, 1223, 1223, 1224, 1225, 1227, 1228, 1234, 1234, 1234, 1236, 1241, 1243, 1244, 1244, 1245, 1249, 1249, 1254, 1257, 1257, 1261, 1263, 1268, 1274, 1275, 1277, 1277, 1277, 1278, 1278, 1284, 1288, 1290, 1292, 1293, 1297, 1297, 1297, 1300, 1300, 1307, 1309, 1310, 1314, 1316, 1325, 1325, 1326, 1326, 1331, 1334, 1335, 1336, 1338, 1340, 1340, 1341, 1350, 1360, 1361, 1363, 1365, 1371, 1371, 1373, 1375, 1378, 1389]
